% File represents an instance of a Composite Structure problem to be solved by a CP framework
% Created on 2025-03-26 10:42:12.513
T = 50;
n = 36;
m = 60;
edges = [(1, 2),
(7, 8),
(13, 14),
(19, 20),
(25, 26),
(31, 32),
(2, 3),
(8, 9),
(14, 15),
(20, 21),
(26, 27),
(32, 33),
(3, 4),
(9, 10),
(15, 16),
(21, 22),
(27, 28),
(33, 34),
(4, 5),
(10, 11),
(16, 17),
(22, 23),
(28, 29),
(34, 35),
(6, 5),
(11, 12),
(18, 17),
(23, 24),
(29, 30),
(35, 36),
(1, 7),
(13, 7),
(19, 13),
(25, 19),
(31, 25),
(2, 8),
(14, 8),
(20, 14),
(26, 20),
(32, 26),
(3, 9),
(15, 9),
(21, 15),
(27, 21),
(33, 27),
(10, 4),
(16, 10),
(22, 16),
(28, 22),
(34, 28),
(11, 5),
(11, 17),
(23, 17),
(29, 23),
(35, 29),
(6, 12),
(18, 12),
(18, 24),
(30, 24),
(36, 30)];
counts = [|6, 10, 6, 8,
|4, 8, 4, 8,
|2, 6, 2, 8,
|2, 2, 2, 6,
|2, 2, 2, 2,
|2, 2, 2, 4,
|6, 10, 6, 6,
|4, 8, 4, 6,
|2, 6, 2, 6,
|2, 4, 2, 6,
|2, 4, 2, 4,
|2, 2, 2, 2,
|8, 10, 8, 6,
|6, 8, 6, 6,
|4, 8, 4, 6,
|2, 6, 2, 6,
|2, 2, 2, 4,
|2, 2, 2, 6,
|8, 14, 8, 8,
|8, 8, 8, 8,
|6, 8, 6, 6,
|4, 6, 4, 6,
|4, 2, 4, 4,
|2, 2, 2, 4,
|10, 14, 10, 10,
|8, 12, 8, 10,
|8, 8, 8, 8,
|6, 6, 6, 8,
|6, 2, 6, 6,
|4, 2, 4, 4,
|10, 16, 10, 14,
|10, 14, 10, 10,
|10, 10, 10, 8,
|8, 8, 8, 8,
|8, 4, 8, 6,
|6, 2, 6, 6|];
